GLPSOL--GLPK LP/MIP Solver 5.0
Parameter(s) specified in the command line:
 --lp ../modeles/15_69.lp --log 15_69.log
Reading problem data from '../modeles/15_69.lp'...
1096 rows, 2100 columns, 7320 non-zeros
1035 integer variables, all of which are binary
3217 lines were read
GLPK Integer Optimizer 5.0
1096 rows, 2100 columns, 7320 non-zeros
1035 integer variables, all of which are binary
Preprocessing...
1050 constraint coefficient(s) were reduced
1096 rows, 2085 columns, 7305 non-zeros
1035 integer variables, all of which are binary
Scaling...
 A: min|aij| =  8.402e-04  max|aij| =  4.000e+00  ratio =  4.761e+03
GM: min|aij| =  1.204e-01  max|aij| =  8.307e+00  ratio =  6.900e+01
EQ: min|aij| =  1.449e-02  max|aij| =  1.000e+00  ratio =  6.900e+01
2N: min|aij| =  1.344e-02  max|aij| =  1.695e+00  ratio =  1.261e+02
Constructing initial basis...
Size of triangular part is 1096
Solving LP relaxation...
GLPK Simplex Optimizer 5.0
1096 rows, 2085 columns, 7305 non-zeros
      0: obj =   3.000000000e+01 inf =   7.450e+01 (31)
    164: obj =   4.938025210e-01 inf =   0.000e+00 (0)
*   506: obj =  -3.868206522e+00 inf =   5.843e-16 (0) 1
OPTIMAL LP SOLUTION FOUND
Integer optimization begins...
Long-step dual simplex will be used
+   506: mip =     not found yet >=              -inf        (1; 0)
+   508: >>>>>  -3.868206522e+00 >=  -3.868206522e+00 < 0.1% (3; 0)
+   508: mip =  -3.868206522e+00 >=     tree is empty   0.0% (0; 5)
INTEGER OPTIMAL SOLUTION FOUND
Time used:   0.0 secs
Memory used: 3.1 Mb (3241591 bytes)
